NAME : n100w60.004.834.tour
COMMENT : Length = 834
COMMENT : Found by LKH [Keld Helsgaun] Tue Nov  7 19:36:31 2017
TYPE : TOUR
DIMENSION : 101
TOUR_SECTION
1
94
58
42
82
98
39
9
59
75
50
53
35
13
84
41
5
70
80
25
47
55
66
11
95
23
96
2
30
67
31
26
81
21
100
79
38
17
61
92
27
86
57
15
36
19
85
77
60
20
69
44
52
48
40
64
72
73
7
32
87
29
90
22
65
51
56
49
46
91
54
71
74
78
43
68
12
18
33
14
37
93
3
99
16
10
88
8
83
97
62
89
45
28
24
76
6
4
101
34
63
-1
EOF
